n = 27;
lu = [|-498, -462
      |388, 494
      |-365, 729
      |-458, -266
      |221, 577
      |-298, 126
      |-434, -293
      |-396, 73
      |-461, 512
      |-345, -317
      |-673, 104
      |-587, -238
      |-535, 131
      |-85, 697
      |-464, -368
      |308, 335
      |627, 685
      |-175, 525
      |-253, 662
      |-460, 190
      |-702, -320
      |-147, 567
      |-197, 654
      |-568, 336
      |-158, 363
      |-476, 450
      |-386, 125|];
